sets/C/cp-n4-k1.vrp
NAME : cp-n2-k1
COMMENT : (Claudio Procida)
TYPE : CVRP
DIMENSION : 4
EDGE_WEIGHT_TYPE : EUC_2D
CAPACITY : 50
NODE_COORD_SECTION
1 20 52
2 42 39
3 36 38
4  0 17
DEMAND_SECTION
1 0
2 31
3 11
4 8
DEPOT_SECTION
1
-1
EOF
