sets/C/cp-n4-k1.opt
Route #1: 3 2 1
cost 114
